69 81
17 16
45 1
45 2 26
61 2 46
49 3 25
4 48 24
67 4 48
5 23
5 23
6 59 38
7 39
8 36 58
56 36 9
18 9
10 56 33
10 41
53 33 11
19 11
32 12 53
42 12
32 13 29
20 13
14 29 51
14 22
15 28 51
15 44 27 28
81 16
61 62
63 62 76
80 71
73 72
76 75
77 76
21 20
22 30
23 24
66 24 25
26 25
31 64 26
27 71 31
71 28
30 29
31 30
78 35 31
32 34 75
34 33
35 34
35 37 70
37 36
68 37 38
39 38
40 39
42 54 43
43 72
74 44
45 52
47 46
49 48
49 61 50 65
52 50
75 52 51
55 79 52
54 53
55 54 72
55 57
57 56
57 69 58
59 58
60 59
